Route 1: 100 168 181 21 26 150 161 91 79 95 128 44 6 40 32 38 200 178 13 146 193 27 68 157 90 166 142 66 198 11 130 93 105 123 64 58 173 141 84 5 7 159 156 24 187 114 136 121 10 50 30 46 126 85 171 163
Route 2: 18 67 23 41 164 73 183 151 8 45 197 184 119 71 48 167 194 92 47 57 78 135 170 3 63 104 165 133 17 124 180 14 176 138 16 83 189 98 89 174 127 112 169 109 20 25 87 153 53 154 22 86 99
Route 3: 199 116 139 77 65 61 60 31 43 19 143 152 118 94 134 75 102 195 132 122 196 145 191 69 101 107 186 96 111 113 70 55 42 12 182 54 2 110 108 52 97 190 148
Route 4: 4 34 74 36 192 62 131 33 56 179 177 35 162 137 117 51 59 88 103 15 144 158 49 172 120 81 9 129 37 29 147 160 185 125 82 106 28 149 76 188 39 1 155 140 175 115 72 80
Vehicles: 4
Distance: 5598.27
